data;

set SUGARS := cane corn beet;
set SUPPLIERS := a b c d e f g;
param cost := 
	a 27
	b 39 
	c 42 
	d 33
	e 38 
	f 14
	g 19;
		
param u := 0.34;
param l := 0.32;

param content:
			a	b	c	d	e	f	g :=
	cane	0.1	0.1	0.2	0.3	0.4	0.2	0.6
	corn	0.3	0.4	0.4	0.2	0.6	0.7	0.1
	beet	0.6	0.5	0.4	0.5	0	0.1	0.3;